p cnf 150 30
x -3 -6 -7 8 11 12 -15 -17 19 20 -22 23 -24 -27 -28 29 -31 -37 38 -39 40 41 -42 -43 44 -46 48 49 51 52 53 -55 -56 -58 59 61 63 -64 -66 -67 -68 69 -70 71 -76 80 -81 -85 87 89 90 94 -95 99 -100 -102 -103 -104 -105 -106 107 111 116 -117 -118 119 -120 -125 -126 -129 -131 132 133 -135 136 137 138 140 -141 142 144 147 0
x 3 -4 -6 -7 -10 -12 -13 14 -15 16 17 18 19 -20 -21 -22 23 25 27 28 -30 32 -33 -35 36 37 -40 42 -45 46 -47 49 51 -55 -57 -58 -61 -65 66 -68 69 -70 71 -72 -74 -76 81 -82 -83 84 91 -92 -96 -98 -99 100 102 -103 -105 -119 121 125 -128 -129 -130 -132 137 -138 140 -141 146 -147 0
x 1 2 6 8 10 -14 15 -16 -17 18 19 20 24 -27 -30 31 -32 -33 -34 37 38 39 -40 42 -43 48 50 -51 -54 57 -59 -61 -71 74 -75 76 79 -80 -81 82 -84 85 -86 87 -92 93 96 -100 -102 -103 -111 -115 117 120 -121 -124 131 -135 136 -138 139 140 142 -143 -144 148 -149 150 0
x 1 -3 -5 9 -12 13 -15 -16 18 19 -20 21 -22 23 27 -28 -31 32 -33 34 -35 36 -37 38 -40 41 -42 43 44 48 49 50 51 -56 -59 60 -63 -64 65 -66 -67 -68 -69 70 -71 73 74 75 79 80 81 -83 -85 -86 -87 -88 -89 -90 98 100 102 103 104 -106 -109 -110 111 -112 -115 116 118 124 -125 126 128 130 132 133 -134 -135 136 -137 142 144 -145 146 -150 0
x -2 4 5 7 8 -11 -12 15 -16 -21 -23 -24 -25 27 29 -32 34 -37 -39 40 -41 51 -54 55 56 57 -58 63 -65 66 -67 -68 69 -71 -72 73 74 75 76 79 81 82 -83 -84 -85 -88 -90 -91 92 93 -96 -97 -100 -101 102 103 104 -107 -109 110 113 117 120 -122 -126 -127 -128 -129 -130 -133 136 137 138 139 140 -142 -146 147 150 0
x -1 5 -6 -7 8 -9 11 14 -16 -18 19 20 21 23 24 -25 -26 30 -32 -33 35 36 -37 -39 -40 -41 47 -48 49 -54 55 -57 61 -62 63 68 -73 78 80 -81 82 84 -87 -90 -95 96 -98 99 -101 -103 105 107 111 -112 113 117 -119 -121 122 -123 -125 130 -132 -135 139 -144 -146 0
x -1 -4 6 7 9 -14 15 -17 -19 -21 -23 27 28 30 31 -34 35 36 -37 -41 43 44 -45 -51 -53 54 55 -58 59 64 65 67 68 71 -72 -76 -77 78 79 -80 81 82 -83 -94 -96 -97 98 -99 -100 -101 -104 105 108 -109 111 113 114 -115 116 -117 -118 119 -123 -125 126 -127 -130 -132 -133 134 142 -146 147 -148 149 150 0
x 2 -3 4 5 -6 -7 -10 11 12 13 15 -17 -18 19 20 21 -22 27 -28 -29 33 -34 -36 37 40 -43 44 45 -47 50 -51 53 54 -57 58 60 -61 -62 -68 -70 71 72 73 -74 -75 -76 -79 81 -84 -85 86 -87 88 89 90 -93 -94 -95 96 98 103 -106 -107 108 -109 111 -114 -118 -119 122 -123 -124 -128 -129 130 131 -133 137 138 141 142 143 146 147 148 149 150 0
x 3 -5 7 9 -12 -16 19 -20 21 -23 24 25 -28 -29 -33 -34 39 -43 -44 45 -47 -56 63 64 -66 -68 -69 -70 -71 -73 -75 -77 -80 -82 83 84 88 89 -91 -92 93 95 97 98 99 -100 -102 103 104 105 -111 -113 -114 -117 118 121 122 123 129 131 -132 134 140 -141 145 146 -148 -150 0
x 2 -4 7 8 10 12 -13 14 -15 -17 21 24 25 -26 27 -28 30 -31 34 36 -40 -43 46 -47 -48 -50 51 -53 -56 59 60 -63 -67 68 -70 71 76 -77 -79 -80 -81 86 87 88 -89 92 -94 -97 98 -100 101 104 -108 -112 -115 120 121 123 -126 -127 -128 -130 134 136 137 -140 -143 -144 146 150 0
x 5 8 -13 16 18 20 -24 -25 -28 -29 -30 -32 33 35 41 -43 49 50 52 -53 -54 55 -57 58 -59 -60 61 63 64 69 70 -71 73 -75 -77 -82 87 88 -89 92 93 95 -97 -99 104 -106 -107 -108 109 -111 116 120 -121 -123 -124 125 -127 -129 -131 -132 133 -136 137 138 140 141 -142 143 144 -145 -147 0
x -1 6 -7 9 -12 -13 14 -16 -17 18 -19 20 -21 23 29 -30 -34 36 38 -39 -45 49 -54 58 -60 61 -63 64 -67 69 70 71 -73 74 -75 -77 78 81 82 -86 91 -92 94 96 -98 -100 101 -103 -105 109 110 -111 113 -117 118 120 -121 -130 131 -135 137 138 140 -142 145 147 149 0
x -3 4 -5 6 7 9 10 14 15 16 21 -23 24 26 28 -32 -34 -36 37 38 39 41 -43 47 48 49 51 52 -55 56 -57 60 -63 -66 67 -68 74 -76 79 80 81 84 -85 86 89 90 92 -94 95 -98 99 101 -102 -105 107 -108 -109 -112 -116 117 -119 -120 -124 -125 -126 -127 129 -130 133 -134 135 136 137 138 -141 -142 146 148 0
x -8 -10 -11 -12 -13 15 17 18 -20 26 -27 28 29 -31 32 33 34 -35 39 -40 41 -42 47 -48 50 -51 -52 -53 54 55 56 58 -59 61 62 -66 68 -69 70 72 -73 74 75 76 77 78 79 -82 -83 -85 -87 -88 89 91 -93 -95 97 -99 -100 101 105 -106 -110 -113 117 118 -120 122 123 -127 128 -129 133 135 138 -140 141 142 -143 144 -145 147 0
x 1 -4 6 7 -8 -10 16 17 -18 -19 20 -23 24 25 -30 32 34 35 37 39 -40 42 -44 48 -50 52 -53 -54 -56 57 -59 60 -61 -63 64 66 69 71 73 75 76 -77 78 81 -82 83 -85 -88 89 -90 -91 92 95 -96 100 -101 104 105 114 -115 117 -118 122 -123 124 126 127 128 -129 -131 -132 135 136 -140 -141 144 -147 -148 149 150 0
x 1 -5 6 -10 -11 12 14 -15 -17 18 24 25 -28 29 32 34 -35 39 41 -45 -48 -51 -58 61 64 -65 66 73 -75 76 -77 79 -83 84 -86 87 90 -91 -94 -97 99 100 -104 -108 111 -114 -116 -117 -118 -119 130 -131 132 133 136 -137 -138 -144 -145 146 147 150 0
x -2 -4 -6 -9 -10 16 -17 18 19 20 -24 27 28 30 31 33 35 -37 44 -45 46 47 48 -49 -50 -53 55 56 59 -63 64 -66 67 71 72 73 -75 -77 -80 81 -83 -84 -85 -86 87 88 89 -90 -92 -93 -95 -96 97 101 102 -104 105 -106 -107 108 109 112 -113 116 -117 118 -119 -120 121 -127 129 -131 132 133 135 -136 140 -147 -148 0
x -2 -3 -4 -9 -10 -11 -15 17 22 27 -30 33 35 37 39 42 43 -44 50 -51 -53 58 -60 -61 62 -65 -68 72 -73 74 75 -77 -84 85 86 -87 -89 90 -92 -93 -95 -102 103 -104 -105 -106 -108 109 -113 -114 -115 118 119 -121 -122 123 -128 -129 130 131 136 -140 -141 142 144 145 -146 150 0
x -1 -2 -3 9 10 12 -15 -16 -18 -19 25 26 -29 -31 32 33 -37 38 -39 -40 -41 -43 45 -46 47 48 -50 51 54 -59 61 -66 68 -71 72 -74 78 -80 -83 -84 85 86 87 -92 -94 -95 96 -98 104 -105 106 108 -110 115 -116 -117 -122 126 -130 132 -133 -137 138 -140 142 145 146 -147 -149 0
x 2 3 5 7 -8 11 -12 -15 16 -17 -19 -20 22 24 -25 27 28 29 -30 31 -33 -34 38 -39 41 -42 43 45 -46 -48 53 54 -55 56 -59 60 61 -63 -65 67 -71 74 75 79 -81 84 86 -90 91 92 -93 -95 -96 98 99 -101 102 107 -109 -110 112 -116 117 121 -122 125 -128 129 132 -134 -135 136 -137 -138 -139 -145 146 -147 -148 0
x -4 -6 -7 -9 -10 -11 13 -14 15 -16 -17 20 -21 -23 -24 -27 29 -30 -32 37 39 42 -45 46 49 -50 53 54 60 -62 63 -64 -69 72 74 77 80 82 83 -84 -85 -86 -88 -89 -90 91 93 94 95 96 -97 -98 -101 102 103 -104 106 107 109 -112 -113 117 -118 -119 -120 121 -122 123 127 -128 131 132 -133 134 135 138 147 148 0
x -3 -4 5 -8 -9 -10 12 -18 -19 23 24 25 27 -28 -29 30 -33 -36 -38 -39 41 -42 43 45 -46 -50 51 54 -55 -57 60 -61 -62 -63 -65 -66 -67 -69 70 -71 72 74 76 -83 87 89 -90 91 -93 -95 99 -100 101 103 104 105 -106 -107 109 -111 -112 115 116 -117 -121 123 124 126 127 129 -130 132 134 -135 137 -138 -141 -142 144 -145 -146 148 150 0
x 1 -2 -4 6 -9 11 -14 -18 21 -22 24 -27 -28 -29 30 31 32 33 37 -39 41 -42 44 -47 -52 53 -54 -55 -56 -61 63 64 65 -66 -67 68 -69 -70 71 72 -73 -74 77 -79 -80 -82 83 -88 89 90 -91 92 93 -101 103 -105 107 110 -113 -115 -116 118 -120 -121 -122 -127 -131 132 133 -134 137 -139 -143 -145 149 0
x 1 6 7 8 -9 -14 -16 18 -26 27 28 30 32 -34 36 39 40 42 -43 46 -49 50 -56 57 -62 -66 -67 68 -69 -70 -71 72 73 -77 -78 81 -84 88 90 -92 93 -94 95 -96 -97 -100 -101 105 -109 111 -112 -118 120 -121 122 -125 127 -129 130 -134 136 144 0
x 1 2 -4 -5 9 -15 -16 18 20 -24 -25 29 -32 -33 -34 35 36 37 39 44 -50 -53 57 -63 -66 67 -69 -70 -71 -72 74 76 -77 -79 -82 -85 -87 88 94 98 -99 -100 -103 -105 107 -108 109 -115 -118 119 -123 124 -125 -127 129 130 131 135 136 -139 -140 -141 -142 143 145 -146 -147 -149 150 0
x -3 7 -9 10 -12 -15 16 -18 -19 20 21 -23 24 26 31 -34 36 -38 39 41 -44 -46 -48 52 -54 55 -56 -59 -65 66 -68 69 71 -74 75 76 -77 -78 80 -84 85 86 87 88 90 91 -92 -95 96 -98 -99 100 -102 103 104 -109 111 -112 114 116 -117 120 -127 -128 129 130 132 -133 -134 135 138 139 -140 -147 -148 -150 0
x 1 -2 6 9 -10 17 18 19 -20 21 -23 25 26 27 -33 35 36 -40 41 42 46 -48 49 50 -53 -54 -55 56 59 60 -62 -63 64 -65 66 -67 -68 71 -72 74 -75 76 -79 81 85 -87 -91 93 -94 -95 -96 -98 100 -103 104 106 -109 111 -112 113 114 -115 123 124 126 -130 132 134 135 -138 139 142 150 0
x 4 5 8 -9 11 12 15 -17 24 25 -27 -29 31 33 34 -36 -37 40 -41 -43 44 -48 51 -55 56 -57 58 59 -61 -64 66 -67 -68 -69 71 -72 73 -74 -78 79 -83 -87 -88 -91 92 -95 -96 -98 100 101 103 -107 108 109 110 113 114 115 119 123 -124 125 129 130 131 -133 134 135 -136 141 142 143 -144 -147 -149 0
x 1 -5 6 -7 8 9 -10 -11 17 -18 20 21 -23 25 -26 -30 31 33 -34 -35 -36 37 -38 -42 -44 46 47 -48 -50 -51 -52 55 -56 61 64 -65 68 -69 -70 -71 -73 -75 76 -78 80 81 83 -86 87 -90 -91 92 -93 -96 -98 99 -100 102 -103 105 -106 -107 -108 -111 -112 113 -114 115 -117 118 -119 120 121 122 -123 126 129 -130 -132 133 -134 -135 136 -138 -143 145 146 147 -148 -149 0
x 3 4 -5 -6 -7 -8 -9 -11 -12 13 -15 -17 19 21 23 24 -25 28 -32 35 36 38 -39 40 -45 47 51 52 -53 -55 -56 60 -61 62 63 -64 66 -67 70 -73 74 -76 77 80 -82 -85 86 87 -88 -90 -91 92 94 95 -96 97 -98 99 -100 -102 103 -104 -106 112 -113 115 116 -117 -118 120 122 124 -127 128 -129 132 133 -140 141 142 143 -145 146 -148 -149 0
g -45